NAME : rc_203.3.9214397.tour
COMMENT : Length = 9214397
COMMENT : Found by LKH [Keld Helsgaun] Tue Nov  7 19:55:44 2017
TYPE : TOUR
DIMENSION : 37
TOUR_SECTION
1
36
34
20
32
16
15
11
17
14
12
9
10
13
24
19
25
35
21
29
30
18
2
4
3
6
27
37
23
26
5
7
28
22
8
33
31
-1
EOF
